PROBLEM NAME: eil51_n8
KNAPSACK DATA TYPE: multiple strongly correlated
DIMENSION: 8
NUMBER OF ITEMS: 35
CAPACITY OF KNAPSACK: 15911
MIN SPEED: 0.1
MAX SPEED: 1
RENTING RATIO: 42.72
EDGE_WEIGHT_TYPE: CEIL_2D
NODE_COORD_SECTION	(INDEX, X, Y):
1	52	64
2	57	58
3	16	57
4	27	68
5	58	48
6	10	17
7	39	10
8	48	28
ITEMS SECTION	(INDEX, PROFIT, WEIGHT, ASSIGNED NODE NUMBER):
1	1171	971	4
2	1103	903	4
3	1098	898	4
4	1091	891	4
5	1067	867	4
6	1032	832	3
7	1032	832	3
8	1008	808	3
9	1001	801	3
10	927	727	3
11	910	710	6
12	832	632	6
13	802	602	6
14	772	572	6
15	748	548	6
16	737	537	7
17	718	518	7
18	714	514	7
19	648	348	7
20	634	434	7
21	631	431	8
22	583	383	8
23	583	383	8
24	543	343	8
25	508	308	8
26	481	281	5
27	472	272	5
28	438	138	5
29	418	218	5
30	412	212	5
31	365	165	2
32	316	116	2
33	311	111	2
34	306	106	2
35	291	91	2
